
c turning on binary mode checking

c parsing input formula with 30 variables and 1560 clauses

c finished parsing, read 1375 bytes from proof file

c detected empty clause; start verification via backward checking

c 277 of 1560 clauses in core                            

c 137 of 161 lemmas in core using 1733 resolution steps

c 0 RAT lemmas in core; 10 redundant literals in core lemmas

s VERIFIED

c verification time: 0.055 seconds
